letting n_nurses=25
letting n_days=7
letting n_shift_types=4
letting max_covers=12
letting t_covers=87
letting covers=[6,10,0,0,7,0,12,0,3,3,12,0,5,1,1,0,0,3,3,0,10,3,2,0,3,3,0,0]
letting prefes=[1,1,4,2,4,2,1,1,4,2,1,1,1,1,4,2,4,2,1,1,1,1,4,2,4,2,1,1,3,1,1,1,4,2,1,1,4,2,1,1,3,1,1,1,4,2,1,1,3,1,1,1,4,2,1,1,1,4,4,2,4,2,1,3,4,2,1,3,1,4,4,2,4,2,1,3,1,4,4,2,4,2,1,3,3,4,4,2,1,2,1,3,1,2,1,3,3,4,4,2,1,2,1,3,3,4,4,2,1,2,1,3,3,1,4,1,4,1,1,3,4,1,1,3,3,1,4,1,4,1,1,3,3,1,4,1,4,1,1,3,3,1,4,2,4,2,1,3,4,2,1,3,3,1,4,2,4,2,1,3,3,1,4,2,4,2,1,3,3,1,4,2,4,2,1,1,4,2,1,1,3,1,4,2,4,2,1,1,3,1,4,2,4,2,1,1,3,1,4,2,4,2,1,3,4,2,1,3,3,1,4,2,4,2,1,3,3,1,4,2,4,2,1,3,3,4,4,2,4,2,3,3,4,2,3,3,3,4,4,2,4,2,3,3,3,4,4,2,4,2,3,3,3,1,4,2,1,2,1,1,1,2,1,1,3,1,4,2,1,2,1,1,3,1,4,2,1,2,1,1,3,1,4,2,4,1,3,3,4,1,3,3,3,1,4,2,4,1,3,3,3,1,4,2,4,1,3,3,3,1,4,2,4,2,1,3,4,2,1,3,3,1,4,2,4,2,1,3,3,1,4,2,4,2,1,3,3,1,1,2,4,1,1,1,4,1,1,1,3,1,1,2,4,1,1,1,3,1,1,2,4,1,1,1,3,1,1,1,4,2,3,3,4,2,3,3,3,1,1,1,4,2,3,3,3,1,1,1,4,2,3,3,3,4,4,2,1,2,1,3,1,2,1,3,3,4,4,2,1,2,1,3,3,4,4,2,1,2,1,3,1,1,4,1,4,1,1,3,4,1,1,3,1,1,4,1,4,1,1,3,1,1,4,1,4,1,1,3,3,4,4,2,4,2,1,3,4,2,1,3,3,4,4,2,4,2,1,3,3,4,4,2,4,2,1,3,3,1,1,2,1,2,1,3,1,2,1,3,3,1,1,2,1,2,1,3,3,1,1,2,1,2,1,3,3,1,4,2,4,2,3,3,4,2,3,3,3,1,4,2,4,2,3,3,3,1,4,2,4,2,3,3,3,1,4,2,4,2,3,3,4,2,3,3,3,1,4,2,4,2,3,3,3,1,4,2,4,2,3,3,1,1,4,2,4,2,1,3,4,2,1,3,1,1,4,2,4,2,1,3,1,1,4,2,4,2,1,3,3,1,4,2,1,2,1,3,1,2,1,3,3,1,4,2,1,2,1,3,3,1,4,2,1,2,1,3,3,1,4,2,4,1,1,3,4,1,1,3,3,1,4,2,4,1,1,3,3,1,4,2,4,1,1,3,1,1,4,1,4,2,1,3,4,2,1,3,1,1,4,1,4,2,1,3,1,1,4,1,4,2,1,3,3,1,1,2,4,2,1,3,4,2,1,3,3,1,1,2,4,2,1,3,3,1,1,2,4,2,1,3]
letting ub =  286
